p edge 64 512
e 1 17
e 1 14
e 1 45
e 1 16
e 1 35
e 1 62
e 1 32
e 1 4
e 1 48
e 1 46
e 1 33
e 1 52
e 1 39
e 1 60
e 1 53
e 1 58
e 1 59
e 1 10
e 1 8
e 1 7
e 2 34
e 2 21
e 2 11
e 2 44
e 2 6
e 2 59
e 2 57
e 2 48
e 2 28
e 2 60
e 2 25
e 2 27
e 2 56
e 2 5
e 2 15
e 2 46
e 2 31
e 2 42
e 2 9
e 3 33
e 3 35
e 3 8
e 3 50
e 3 59
e 3 49
e 3 12
e 3 22
e 3 25
e 3 52
e 3 61
e 3 10
e 3 64
e 3 14
e 3 5
e 3 45
e 3 4
e 3 46
e 3 23
e 3 29
e 3 38
e 3 57
e 4 8
e 4 35
e 4 42
e 4 51
e 4 54
e 4 21
e 4 49
e 4 22
e 4 63
e 4 23
e 4 44
e 4 34
e 4 11
e 4 46
e 4 29
e 5 55
e 5 17
e 5 22
e 5 24
e 5 60
e 5 48
e 5 42
e 5 7
e 5 43
e 5 49
e 5 47
e 5 29
e 5 45
e 5 8
e 5 28
e 5 53
e 6 18
e 6 20
e 6 50
e 6 60
e 6 63
e 6 54
e 6 11
e 6 47
e 7 23
e 7 57
e 7 52
e 7 33
e 7 63
e 7 62
e 7 13
e 7 44
e 7 35
e 7 59
e 7 64
e 7 15
e 7 47
e 7 17
e 7 60
e 8 57
e 8 53
e 8 49
e 8 17
e 8 40
e 8 58
e 8 54
e 8 56
e 8 18
e 8 64
e 8 51
e 8 48
e 8 11
e 8 55
e 9 20
e 9 60
e 9 58
e 9 24
e 9 22
e 9 55
e 9 54
e 10 11
e 10 39
e 10 45
e 10 43
e 10 20
e 10 64
e 10 59
e 10 38
e 10 52
e 10 54
e 10 49
e 11 48
e 11 53
e 11 25
e 11 59
e 11 45
e 11 62
e 11 14
e 11 54
e 11 60
e 11 29
e 11 55
e 11 28
e 11 58
e 11 33
e 11 20
e 11 26
e 12 60
e 12 45
e 12 61
e 12 47
e 12 18
e 12 40
e 12 33
e 12 58
e 12 21
e 12 19
e 12 46
e 12 44
e 13 52
e 13 24
e 13 20
e 13 42
e 13 39
e 13 32
e 13 34
e 13 60
e 13 26
e 13 44
e 13 18
e 13 62
e 13 17
e 14 47
e 14 56
e 14 39
e 14 35
e 14 40
e 14 59
e 14 61
e 14 52
e 14 53
e 14 60
e 14 24
e 14 15
e 14 29
e 14 20
e 14 55
e 14 17
e 14 32
e 14 43
e 14 48
e 15 26
e 15 18
e 15 29
e 15 61
e 15 22
e 15 43
e 15 57
e 15 36
e 15 48
e 16 28
e 16 27
e 16 39
e 16 45
e 16 24
e 16 23
e 16 20
e 16 22
e 16 19
e 16 38
e 16 31
e 16 25
e 16 35
e 16 47
e 16 64
e 17 25
e 17 29
e 17 31
e 17 26
e 17 43
e 17 44
e 17 33
e 17 30
e 17 57
e 18 44
e 18 55
e 18 26
e 18 60
e 18 58
e 18 46
e 18 37
e 18 45
e 18 57
e 18 38
e 18 47
e 18 61
e 19 58
e 19 64
e 19 52
e 19 24
e 19 35
e 19 55
e 19 20
e 19 48
e 20 53
e 20 54
e 20 29
e 20 25
e 20 60
e 20 28
e 20 47
e 20 56
e 20 22
e 21 41
e 21 62
e 21 29
e 21 35
e 21 58
e 21 60
e 22 54
e 22 49
e 22 33
e 22 29
e 22 51
e 22 50
e 22 57
e 22 62
e 22 30
e 22 41
e 23 50
e 23 56
e 23 47
e 23 45
e 23 33
e 23 38
e 23 52
e 23 36
e 23 51
e 23 30
e 23 55
e 24 61
e 24 62
e 24 54
e 24 50
e 24 37
e 24 56
e 24 43
e 24 45
e 24 42
e 24 44
e 24 40
e 24 52
e 24 25
e 25 42
e 25 40
e 25 62
e 25 52
e 25 36
e 25 38
e 25 41
e 25 51
e 25 58
e 25 59
e 25 50
e 25 55
e 25 46
e 25 63
e 26 44
e 26 42
e 26 38
e 26 57
e 26 35
e 26 43
e 26 41
e 26 34
e 27 60
e 27 31
e 27 57
e 27 44
e 27 29
e 27 63
e 27 59
e 27 33
e 27 34
e 27 43
e 27 37
e 28 54
e 28 50
e 28 38
e 28 48
e 28 64
e 28 51
e 28 37
e 28 60
e 28 56
e 28 49
e 29 51
e 29 54
e 29 41
e 29 61
e 29 38
e 29 36
e 29 47
e 29 52
e 30 57
e 30 48
e 30 59
e 30 49
e 30 53
e 30 61
e 30 39
e 30 43
e 30 38
e 30 31
e 30 32
e 31 45
e 31 58
e 31 64
e 31 63
e 31 36
e 32 46
e 32 47
e 32 45
e 32 59
e 32 42
e 32 55
e 32 34
e 32 56
e 32 63
e 33 40
e 33 47
e 33 59
e 33 34
e 33 51
e 33 45
e 33 38
e 33 36
e 33 53
e 33 50
e 34 41
e 34 54
e 34 37
e 34 64
e 34 48
e 34 57
e 35 41
e 35 53
e 35 42
e 35 60
e 35 39
e 35 61
e 35 47
e 36 37
e 36 47
e 36 49
e 36 52
e 36 59
e 36 38
e 36 56
e 36 39
e 37 63
e 37 50
e 37 41
e 37 39
e 37 40
e 37 38
e 37 55
e 37 53
e 37 57
e 38 60
e 38 58
e 38 52
e 38 54
e 38 47
e 38 55
e 38 49
e 39 47
e 39 43
e 39 50
e 39 62
e 39 52
e 39 57
e 39 54
e 39 60
e 40 46
e 40 45
e 40 60
e 40 42
e 40 56
e 40 50
e 41 62
e 41 57
e 41 60
e 41 48
e 41 63
e 42 57
e 42 60
e 42 53
e 42 49
e 42 43
e 42 63
e 42 59
e 42 61
e 43 53
e 43 57
e 43 54
e 44 59
e 44 62
e 44 57
e 44 52
e 44 56
e 45 49
e 45 56
e 45 62
e 46 64
e 46 63
e 46 60
e 46 48
e 46 56
e 46 53
e 46 55
e 46 51
e 47 56
e 47 55
e 47 63
e 47 64
e 48 59
e 48 52
e 49 60
e 49 55
e 49 58
e 50 64
e 50 61
e 50 53
e 50 62
e 51 57
e 51 60
e 51 64
e 52 58
e 52 61
e 52 56
e 52 54
e 53 62
e 53 56
e 53 54
e 54 61
e 54 63
e 54 57
e 54 56
e 55 60
e 55 64
e 55 56
e 55 62
e 56 59
e 57 62
e 61 63
